Default variable names x1, x2 ... being created.
Default row names c1, c2 ... being created.
Tried aggregator 1 time.
Reduced MIP has 55 rows, 20 columns, and 118 nonzeros.
Reduced MIP has 20 binaries, 0 generals, 0 SOSs, and 0 indicators.
Presolve time = 0.00 sec. (0.08 ticks)
Found incumbent of value 0.000000 after 0.00 sec. (0.12 ticks)
Probing fixed 4 vars, tightened 0 bounds.
Probing time = 0.00 sec. (0.02 ticks)
Tried aggregator 1 time.
MIP Presolve eliminated 28 rows and 4 columns.
Reduced MIP has 27 rows, 16 columns, and 62 nonzeros.
Reduced MIP has 16 binaries, 0 generals, 0 SOSs, and 0 indicators.
Presolve time = 0.00 sec. (0.05 ticks)
Probing time = 0.00 sec. (0.01 ticks)
Tried aggregator 1 time.
Reduced MIP has 27 rows, 16 columns, and 62 nonzeros.
Reduced MIP has 16 binaries, 0 generals, 0 SOSs, and 0 indicators.
Presolve time = 0.00 sec. (0.04 ticks)
Probing time = 0.00 sec. (0.01 ticks)
Clique table members: 25.
MIP emphasis: balance optimality and feasibility.
MIP search method: dynamic search.
Parallel mode: deterministic, using up to 4 threads.
Root relaxation solution time = 0.00 sec. (0.06 ticks)

        Nodes                                         Cuts/
   Node  Left     Objective  IInf  Best Integer    Best Bound    ItCnt     Gap

*     0+    0                            0.0000        6.0000              --- 
      0     0        3.0000    16        0.0000        3.0000       21     --- 
      0     0        2.1622    13        0.0000      Cuts: 16       30     --- 
*     0+    0                            1.0000        2.1622           116.22%
      0     0        cutoff              1.0000                     34    0.00%
Elapsed time = 0.01 sec. (1.01 ticks, tree = 0.00 MB, solutions = 2)

Clique cuts applied:  5
Zero-half cuts applied:  1
Gomory fractional cuts applied:  2

Root node processing (before b&c):
  Real time             =    0.01 sec. (1.01 ticks)
Parallel b&c, 4 threads:
  Real time             =    0.00 sec. (0.00 ticks)
  Sync time (average)   =    0.00 sec.
  Wait time (average)   =    0.00 sec.
                          ------------
Total (root+branch&cut) =    0.01 sec. (1.01 ticks)
Default variable names x1, x2 ... being created.
Default row names c1, c2 ... being created.
Tried aggregator 1 time.
Reduced MIP has 55 rows, 20 columns, and 118 nonzeros.
Reduced MIP has 20 binaries, 0 generals, 0 SOSs, and 0 indicators.
Presolve time = 0.00 sec. (0.08 ticks)
Found incumbent of value 0.000000 after 0.00 sec. (0.12 ticks)
Probing fixed 4 vars, tightened 0 bounds.
Probing time = 0.00 sec. (0.02 ticks)
Tried aggregator 1 time.
MIP Presolve eliminated 28 rows and 4 columns.
Reduced MIP has 27 rows, 16 columns, and 62 nonzeros.
Reduced MIP has 16 binaries, 0 generals, 0 SOSs, and 0 indicators.
Presolve time = 0.00 sec. (0.05 ticks)
Probing time = 0.00 sec. (0.01 ticks)
Tried aggregator 1 time.
Reduced MIP has 27 rows, 16 columns, and 62 nonzeros.
Reduced MIP has 16 binaries, 0 generals, 0 SOSs, and 0 indicators.
Presolve time = 0.00 sec. (0.04 ticks)
Probing time = 0.00 sec. (0.01 ticks)
Clique table members: 25.
MIP emphasis: balance optimality and feasibility.
MIP search method: dynamic search.
Parallel mode: deterministic, using up to 4 threads.
Root relaxation solution time = 0.00 sec. (0.06 ticks)

        Nodes                                         Cuts/
   Node  Left     Objective  IInf  Best Integer    Best Bound    ItCnt     Gap

*     0+    0                            0.0000        6.0000              --- 
      0     0        3.0000    16        0.0000        3.0000       21     --- 
      0     0        2.1622    13        0.0000      Cuts: 16       30     --- 
*     0+    0                            1.0000        2.1622           116.22%
      0     0        cutoff              1.0000                     34    0.00%
Elapsed time = 0.00 sec. (1.01 ticks, tree = 0.00 MB, solutions = 2)

Clique cuts applied:  5
Zero-half cuts applied:  1
Gomory fractional cuts applied:  2

Root node processing (before b&c):
  Real time             =    0.00 sec. (1.01 ticks)
Parallel b&c, 4 threads:
  Real time             =    0.00 sec. (0.00 ticks)
  Sync time (average)   =    0.00 sec.
  Wait time (average)   =    0.00 sec.
                          ------------
Total (root+branch&cut) =    0.00 sec. (1.01 ticks)
